n = 100;
rows = 218;
supports = [|
  {1},2..11,
 |{1},91..100,
 |{2},{1},
 |{2},3..12,
 |{2},92..100,
 |{3},1..2,
 |{3},4..13,
 |{3},93..100,
 |{4},1..3,
 |{4},5..14,
 |{4},94..100,
 |{5},1..4,
 |{5},6..15,
 |{5},95..100,
 |{6},1..5,
 |{6},7..16,
 |{6},96..100,
 |{7},1..6,
 |{7},8..17,
 |{7},97..100,
 |{8},1..7,
 |{8},9..18,
 |{8},98..100,
 |{9},1..8,
 |{9},10..19,
 |{9},99..100,
 |{10},1..9,
 |{10},11..20,
 |{10},{100},
 |{11},1..10,
 |{11},12..21,
 |{12},2..11,
 |{12},13..22,
 |{13},3..12,
 |{13},14..23,
 |{14},4..13,
 |{14},15..24,
 |{15},5..14,
 |{15},16..25,
 |{16},6..15,
 |{16},17..26,
 |{17},7..16,
 |{17},18..27,
 |{18},8..17,
 |{18},19..28,
 |{19},9..18,
 |{19},20..29,
 |{20},10..19,
 |{20},21..30,
 |{21},11..20,
 |{21},22..31,
 |{22},12..21,
 |{22},23..32,
 |{23},13..22,
 |{23},24..33,
 |{24},14..23,
 |{24},25..34,
 |{25},15..24,
 |{25},26..35,
 |{26},16..25,
 |{26},27..36,
 |{27},17..26,
 |{27},28..37,
 |{28},18..27,
 |{28},29..38,
 |{29},19..28,
 |{29},30..39,
 |{30},20..29,
 |{30},31..40,
 |{31},21..30,
 |{31},32..41,
 |{32},22..31,
 |{32},33..42,
 |{33},23..32,
 |{33},34..43,
 |{34},24..33,
 |{34},35..44,
 |{35},25..34,
 |{35},36..45,
 |{36},26..35,
 |{36},37..46,
 |{37},27..36,
 |{37},38..47,
 |{38},28..37,
 |{38},39..48,
 |{39},29..38,
 |{39},40..49,
 |{40},30..39,
 |{40},41..50,
 |{41},31..40,
 |{41},42..51,
 |{42},32..41,
 |{42},43..52,
 |{43},33..42,
 |{43},44..53,
 |{44},34..43,
 |{44},45..54,
 |{45},35..44,
 |{45},46..55,
 |{46},36..45,
 |{46},47..56,
 |{47},37..46,
 |{47},48..57,
 |{48},38..47,
 |{48},49..58,
 |{49},39..48,
 |{49},50..59,
 |{50},40..49,
 |{50},51..60,
 |{51},41..50,
 |{51},52..61,
 |{52},42..51,
 |{52},53..62,
 |{53},43..52,
 |{53},54..63,
 |{54},44..53,
 |{54},55..64,
 |{55},45..54,
 |{55},56..65,
 |{56},46..55,
 |{56},57..66,
 |{57},47..56,
 |{57},58..67,
 |{58},48..57,
 |{58},59..68,
 |{59},49..58,
 |{59},60..69,
 |{60},50..59,
 |{60},61..70,
 |{61},51..60,
 |{61},62..71,
 |{62},52..61,
 |{62},63..72,
 |{63},53..62,
 |{63},64..73,
 |{64},54..63,
 |{64},65..74,
 |{65},55..64,
 |{65},66..75,
 |{66},56..65,
 |{66},67..76,
 |{67},57..66,
 |{67},68..77,
 |{68},58..67,
 |{68},69..78,
 |{69},59..68,
 |{69},70..79,
 |{70},60..69,
 |{70},71..80,
 |{71},61..70,
 |{71},72..81,
 |{72},62..71,
 |{72},73..82,
 |{73},63..72,
 |{73},74..83,
 |{74},64..73,
 |{74},75..84,
 |{75},65..74,
 |{75},76..85,
 |{76},66..75,
 |{76},77..86,
 |{77},67..76,
 |{77},78..87,
 |{78},68..77,
 |{78},79..88,
 |{79},69..78,
 |{79},80..89,
 |{80},70..79,
 |{80},81..90,
 |{81},71..80,
 |{81},82..91,
 |{82},72..81,
 |{82},83..92,
 |{83},73..82,
 |{83},84..93,
 |{84},74..83,
 |{84},85..94,
 |{85},75..84,
 |{85},86..95,
 |{86},76..85,
 |{86},87..96,
 |{87},77..86,
 |{87},88..97,
 |{88},78..87,
 |{88},89..98,
 |{89},79..88,
 |{89},90..99,
 |{90},80..89,
 |{90},91..100,
 |{91},81..90,
 |{91},92..100,
 |{91},{1},
 |{92},82..91,
 |{92},93..100,
 |{92},1..2,
 |{93},83..92,
 |{93},94..100,
 |{93},1..3,
 |{94},84..93,
 |{94},95..100,
 |{94},1..4,
 |{95},85..94,
 |{95},96..100,
 |{95},1..5,
 |{96},86..95,
 |{96},97..100,
 |{96},1..6,
 |{97},87..96,
 |{97},98..100,
 |{97},1..7,
 |{98},88..97,
 |{98},99..100,
 |{98},1..8,
 |{99},89..98,
 |{99},{100},
 |{99},1..9,
 |{100},90..99,
 |{100},1..10 |];

t = 247;

indexes = [|
    0,6,
  | 0,11,
  | 0,22,
  | 0,53,
  | 0,76,
  | 0,94,
  | 1,18,
  | 1,19,
  | 1,27,
  | 1,32,
  | 1,48,
  | 2,28,
  | 2,36,
  | 2,46,
  | 2,74,
  | 2,94,
  | 3,14,
  | 3,17,
  | 3,55,
  | 3,61,
  | 3,75,
  | 4,46,
  | 4,54,
  | 4,66,
  | 4,74,
  | 5,9,
  | 5,39,
  | 5,50,
  | 5,68,
  | 5,72,
  | 6,29,
  | 6,65,
  | 6,82,
  | 6,86,
  | 6,92,
  | 7,14,
  | 7,29,
  | 7,30,
  | 7,69,
  | 7,75,
  | 7,91,
  | 8,64,
  | 8,95,
  | 9,12,
  | 9,16,
  | 9,47,
  | 9,72,
  | 9,98,
  | 10,13,
  | 10,26,
  | 10,56,
  | 10,58,
  | 10,90,
  | 11,24,
  | 11,37,
  | 11,53,
  | 11,83,
  | 14,30,
  | 14,51,
  | 14,83,
  | 15,29,
  | 15,65,
  | 15,69,
  | 15,86,
  | 15,92,
  | 15,94,
  | 16,56,
  | 17,25,
  | 17,34,
  | 17,40,
  | 17,55,
  | 17,73,
  | 18,19,
  | 18,25,
  | 18,31,
  | 18,73,
  | 18,88,
  | 19,32,
  | 19,79,
  | 20,74,
  | 21,82,
  | 21,86,
  | 21,89,
  | 21,92,
  | 22,28,
  | 22,37,
  | 22,46,
  | 22,62,
  | 22,82,
  | 23,27,
  | 23,31,
  | 23,79,
  | 23,86,
  | 24,28,
  | 24,36,
  | 24,64,
  | 25,32,
  | 25,69,
  | 25,75,
  | 25,87,
  | 26,47,
  | 26,58,
  | 26,63,
  | 26,98,
  | 27,31,
  | 27,79,
  | 27,89,
  | 28,53,
  | 28,64,
  | 28,95,
  | 29,37,
  | 29,76,
  | 29,83,
  | 30,51,
  | 30,65,
  | 31,69,
  | 31,91,
  | 31,92,
  | 32,34,
  | 32,70,
  | 32,73,
  | 33,39,
  | 33,47,
  | 33,71,
  | 33,72,
  | 33,80,
  | 33,84,
  | 34,38,
  | 34,43,
  | 34,59,
  | 34,88,
  | 35,46,
  | 35,62,
  | 35,82,
  | 35,99,
  | 36,37,
  | 36,52,
  | 36,64,
  | 36,95,
  | 37,53,
  | 37,94,
  | 38,40,
  | 38,45,
  | 38,61,
  | 38,75,
  | 38,87,
  | 39,49,
  | 39,80,
  | 39,96,
  | 40,59,
  | 40,61,
  | 41,44,
  | 41,49,
  | 41,85,
  | 41,88,
  | 41,96,
  | 41,97,
  | 42,56,
  | 43,44,
  | 43,48,
  | 43,70,
  | 43,87,
  | 43,97,
  | 44,60,
  | 44,96,
  | 45,63,
  | 45,77,
  | 45,85,
  | 45,93,
  | 45,97,
  | 46,54,
  | 46,95,
  | 47,56,
  | 47,57,
  | 47,68,
  | 48,70,
  | 48,88,
  | 48,96,
  | 49,68,
  | 49,71,
  | 49,80,
  | 49,84,
  | 51,55,
  | 51,69,
  | 51,73,
  | 51,91,
  | 54,74,
  | 54,99,
  | 55,75,
  | 56,58,
  | 56,98,
  | 57,58,
  | 57,71,
  | 57,78,
  | 57,84,
  | 57,90,
  | 59,61,
  | 59,77,
  | 59,87,
  | 59,97,
  | 60,71,
  | 60,80,
  | 60,85,
  | 60,96,
  | 60,97,
  | 61,93,
  | 62,74,
  | 62,92,
  | 62,94,
  | 62,99,
  | 63,71,
  | 63,78,
  | 63,84,
  | 63,90,
  | 65,76,
  | 65,83,
  | 65,91,
  | 66,95,
  | 67,98,
  | 68,72,
  | 68,98,
  | 69,79,
  | 70,88,
  | 71,81,
  | 73,75,
  | 73,79,
  | 74,95,
  | 76,83,
  | 77,81,
  | 77,93,
  | 78,81,
  | 78,90,
  | 79,91,
  | 81,85,
  | 81,93,
  | 81,97,
  | 82,94,
  | 82,99,
  | 84,85,
  | 84,98,
  | 85,87,
  | 86,89,
  | 86,91,
  | 87,88,
  | 89,92,
  | 89,99,
  | 90,93 |];

